NAME : X_26_seed_123_id_18
TYPE : CVRP
DIMENSION : 219
EDGE_WEIGHT_TYPE : EUC_2D
CAPACITY : 3
NODE_COORD_SECTION
1	0	0
2	594	304
3	118	478
4	392	918
5	720	269
6	797	239
7	3	978
8	636	638
9	786	734
10	230	722
11	184	762
12	462	80
13	399	621
14	504	612
15	461	899
16	913	272
17	125	31
18	197	820
19	260	679
20	964	724
21	843	218
22	736	847
23	730	969
24	311	654
25	7	134
26	26	982
27	982	200
28	788	855
29	849	465
30	112	446
31	439	837
32	339	298
33	358	7
34	133	709
35	454	10
36	943	244
37	25	979
38	23	199
39	572	671
40	702	392
41	955	918
42	204	964
43	717	500
44	940	881
45	279	705
46	2	367
47	700	361
48	140	751
49	782	692
50	992	326
51	554	500
52	782	778
53	606	322
54	10	642
55	473	526
56	221	290
57	541	832
58	822	697
59	407	52
60	266	647
61	40	136
62	95	550
63	560	692
64	882	444
65	590	770
66	395	463
67	3	743
68	420	158
69	868	890
70	390	375
71	681	722
72	524	498
73	498	261
74	661	955
75	95	826
76	801	537
77	818	336
78	505	177
79	329	426
80	163	153
81	140	733
82	13	10
83	956	273
84	213	918
85	484	6
86	65	920
87	742	599
88	362	724
89	946	144
90	636	818
91	634	407
92	918	98
93	533	499
94	200	638
95	718	999
96	21	137
97	618	559
98	829	113
99	580	137
100	930	532
101	778	999
102	380	115
103	258	726
104	753	364
105	49	102
106	858	342
107	885	689
108	298	8
109	131	110
110	776	712
111	717	333
112	301	234
113	102	410
114	54	722
115	122	734
116	257	647
117	965	945
118	614	588
119	659	410
120	756	683
121	778	338
122	65	128
123	198	300
124	406	869
125	916	885
126	120	414
127	791	377
128	369	791
129	403	997
130	288	398
131	460	498
132	41	919
133	705	755
134	941	207
135	134	619
136	884	510
137	848	263
138	0	353
139	768	985
140	113	489
141	595	855
142	913	899
143	126	622
144	119	593
145	558	501
146	254	876
147	193	637
148	94	721
149	528	561
150	189	794
151	541	523
152	180	891
153	712	431
154	268	619
155	953	645
156	725	60
157	320	21
158	624	443
159	970	954
160	960	520
161	552	211
162	880	945
163	844	73
164	107	112
165	647	40
166	855	571
167	372	672
168	614	471
169	743	851
170	508	619
171	135	45
172	824	734
173	58	267
174	688	574
175	629	686
176	11	658
177	743	561
178	405	799
179	28	972
180	471	606
181	348	774
182	61	138
183	469	837
184	996	72
185	559	48
186	270	750
187	685	426
188	773	846
189	237	865
190	940	983
191	634	156
192	417	965
193	554	115
194	464	808
195	671	31
196	523	173
197	536	159
198	15	757
199	271	954
200	399	733
201	165	34
202	148	316
203	632	159
204	928	944
205	162	310
206	109	534
207	425	435
208	394	885
209	485	385
210	841	112
211	28	193
212	892	960
213	167	504
214	493	698
215	636	932
216	516	632
217	967	619
218	240	513
219	501	671
DEMAND_SECTION
1	0
2	1
3	1
4	1
5	1
6	1
7	1
8	1
9	1
10	1
11	1
12	1
13	1
14	1
15	1
16	1
17	1
18	1
19	1
20	1
21	1
22	1
23	1
24	1
25	1
26	1
27	1
28	1
29	1
30	1
31	1
32	1
33	1
34	1
35	1
36	1
37	1
38	1
39	1
40	1
41	1
42	1
43	1
44	1
45	1
46	1
47	1
48	1
49	1
50	1
51	1
52	1
53	1
54	1
55	1
56	1
57	1
58	1
59	1
60	1
61	1
62	1
63	1
64	1
65	1
66	1
67	1
68	1
69	1
70	1
71	1
72	1
73	1
74	1
75	1
76	1
77	1
78	1
79	1
80	1
81	1
82	1
83	1
84	1
85	1
86	1
87	1
88	1
89	1
90	1
91	1
92	1
93	1
94	1
95	1
96	1
97	1
98	1
99	1
100	1
101	1
102	1
103	1
104	1
105	1
106	1
107	1
108	1
109	1
110	1
111	1
112	1
113	1
114	1
115	1
116	1
117	1
118	1
119	1
120	1
121	1
122	1
123	1
124	1
125	1
126	1
127	1
128	1
129	1
130	1
131	1
132	1
133	1
134	1
135	1
136	1
137	1
138	1
139	1
140	1
141	1
142	1
143	1
144	1
145	1
146	1
147	1
148	1
149	1
150	1
151	1
152	1
153	1
154	1
155	1
156	1
157	1
158	1
159	1
160	1
161	1
162	1
163	1
164	1
165	1
166	1
167	1
168	1
169	1
170	1
171	1
172	1
173	1
174	1
175	1
176	1
177	1
178	1
179	1
180	1
181	1
182	1
183	1
184	1
185	1
186	1
187	1
188	1
189	1
190	1
191	1
192	1
193	1
194	1
195	1
196	1
197	1
198	1
199	1
200	1
201	1
202	1
203	1
204	1
205	1
206	1
207	1
208	1
209	1
210	1
211	1
212	1
213	1
214	1
215	1
216	1
217	1
218	1
219	1
DEPOT_SECTION
1
-1
EOF
